Maximize
 obj: 0 X1
Subject To
 c1:
  + 1 X155 + 1 X49 + 1 X145 + 1 X148 + 1 X196 + 1 X46 + 1 X8 + 1 X15
  <= 1
 c2:
  + 1 X55 + 1 X22 + 1 X143 + 1 X66
  <= 1
 c3:
  + 1 X71 + 1 X183 + 1 X102 + 1 X67 + 1 X4 + 1 X92 + 1 X11 + 1 X171
  + 1 X90 + 1 X153 + 1 X137 + 1 X118 + 1 X161 + 1 X143 + 1 X51 + 1 X129
  + 1 X193 + 1 X109 + 1 X80 + 1 X95
  <= 1
 c4:
  + 1 X56 + 1 X76 + 1 X2 + 1 X94 + 1 X198 + 1 X39 + 1 X68 + 1 X128
  + 1 X188 + 1 X65 + 1 X189 + 1 X30 + 1 X110 + 1 X83 + 1 X124 + 1 X50
  + 1 X187 + 1 X72 + 1 X119 + 1 X48
  <= 1
 c5:
  + 1 X185 + 1 X86 + 1 X35 + 1 X28 + 1 X194 + 1 X139 + 1 X70 + 1 X61
  + 1 X76 + 1 X26 + 1 X120 + 1 X171 + 1 X199 + 1 X123 + 1 X85 + 1 X87
  + 1 X20 + 1 X4 + 1 X44 + 1 X89
  <= 1
 c6:
  + 1 X49 + 1 X68 + 1 X184 + 1 X82 + 1 X18 + 1 X151 + 1 X84 + 1 X74
  + 1 X62 + 1 X196 + 1 X143 + 1 X187 + 1 X103 + 1 X120 + 1 X159
  <= 1
 c7:
  + 1 X65 + 1 X140 + 1 X154 + 1 X35 + 1 X178 + 1 X164 + 1 X86 + 1 X75
  + 1 X160 + 1 X24 + 1 X96 + 1 X161 + 1 X3
  <= 1
 c8:
  + 1 X157 + 1 X57 + 1 X31 + 1 X87 + 1 X14 + 1 X189 + 1 X98 + 1 X33
  <= 1
 c9:
  + 1 X80 + 1 X32 + 1 X15 + 1 X155 + 1 X127 + 1 X90
  <= 1
 c10:
  + 1 X186 + 1 X53 + 1 X131 + 1 X144 + 1 X51 + 1 X48 + 1 X37 + 1 X132
  + 1 X139 + 1 X156 + 1 X111 + 1 X114 + 1 X149 + 1 X89 + 1 X160 + 1 X88
  <= 1
 c11:
  + 1 X90 + 1 X148 + 1 X188 + 1 X185 + 1 X23 + 1 X88 + 1 X60 + 1 X39
  + 1 X155 + 1 X120 + 1 X17 + 1 X107 + 1 X93 + 1 X53 + 1 X91 + 1 X179
  + 1 X34
  <= 1
 c12:
  + 1 X133 + 1 X125 + 1 X51 + 1 X180 + 1 X174 + 1 X36
  <= 1
 c13:
  + 1 X82 + 1 X56 + 1 X109 + 1 X119 + 1 X7 + 1 X105 + 1 X154 + 1 X156
  + 1 X86 + 1 X47 + 1 X158 + 1 X25 + 1 X168 + 1 X31 + 1 X193 + 1 X5
  + 1 X79 + 1 X196 + 1 X162 + 1 X176
  <= 1
 c14:
  + 1 X123 + 1 X114 + 1 X70 + 1 X165 + 1 X3 + 1 X195 + 1 X188 + 1 X54
  + 1 X193 + 1 X68 + 1 X168 + 1 X145 + 1 X132 + 1 X18 + 1 X136 + 1 X200
  + 1 X98 + 1 X36 + 1 X41 + 1 X194
  <= 1
 c15:
  + 1 X167 + 1 X179 + 1 X151 + 1 X12 + 1 X20 + 1 X145 + 1 X194 + 1 X164
  + 1 X109 + 1 X123 + 1 X104 + 1 X10 + 1 X119
  <= 1
 c16:
  + 1 X125 + 1 X111 + 1 X143 + 1 X38 + 1 X163 + 1 X97
  <= 1
 c17:
  + 1 X161 + 1 X93 + 1 X46 + 1 X23 + 1 X13 + 1 X156
  <= 1
 c18:
  + 1 X83 + 1 X80 + 1 X74 + 1 X176 + 1 X24 + 1 X23 + 1 X59 + 1 X134
  + 1 X75
  <= 1
 c19:
  + 1 X200 + 1 X106 + 1 X194 + 1 X127 + 1 X21 + 1 X39 + 1 X68 + 1 X57
  + 1 X199 + 1 X125 + 1 X11 + 1 X97 + 1 X187 + 1 X54 + 1 X158
  <= 1
 c20:
  + 1 X53 + 1 X63 + 1 X195 + 1 X14 + 1 X109 + 1 X18 + 1 X55
  <= 1
 c21:
  + 1 X169 + 1 X191 + 1 X68 + 1 X115 + 1 X2 + 1 X105 + 1 X49 + 1 X39
  + 1 X40 + 1 X167
  <= 1
 c22:
  + 1 X26 + 1 X107 + 1 X81 + 1 X42 + 1 X165 + 1 X198 + 1 X35 + 1 X114
  + 1 X189 + 1 X190 + 1 X146 + 1 X108 + 1 X74 + 1 X192 + 1 X5
  <= 1
 c23:
  + 1 X113 + 1 X45 + 1 X23 + 1 X115 + 1 X161 + 1 X153 + 1 X62 + 1 X35
  + 1 X145 + 1 X165 + 1 X7 + 1 X95 + 1 X16
  <= 1
 c24:
  + 1 X106 + 1 X171 + 1 X27 + 1 X11 + 1 X97 + 1 X124 + 1 X85 + 1 X18
  + 1 X122 + 1 X166 + 1 X188 + 1 X175 + 1 X65 + 1 X21 + 1 X53 + 1 X115
  + 1 X84 + 1 X116 + 1 X137
  <= 1
 c25:
  + 1 X19 + 1 X178 + 1 X15 + 1 X147 + 1 X123 + 1 X59 + 1 X92 + 1 X110
  + 1 X60
  <= 1
 c26:
  + 1 X175 + 1 X140 + 1 X61 + 1 X77 + 1 X142 + 1 X135 + 1 X23 + 1 X99
  + 1 X41 + 1 X164 + 1 X184 + 1 X123 + 1 X130 + 1 X50 + 1 X57 + 1 X121
  + 1 X119 + 1 X181
  <= 1
 c27:
  + 1 X63 + 1 X31 + 1 X39 + 1 X51 + 1 X181 + 1 X104 + 1 X140 + 1 X18
  <= 1
 c28:
  + 1 X127 + 1 X181 + 1 X4 + 1 X168 + 1 X132 + 1 X187 + 1 X128 + 1 X73
  + 1 X41 + 1 X142
  <= 1
 c29:
  + 1 X140 + 1 X87 + 1 X199 + 1 X2 + 1 X40 + 1 X142 + 1 X91 + 1 X48
  + 1 X128 + 1 X108 + 1 X165 + 1 X143 + 1 X28 + 1 X85 + 1 X54
  <= 1
 c30:
  + 1 X73 + 1 X191 + 1 X13
  <= 1
 c31:
  + 1 X134 + 1 X36 + 1 X68 + 1 X164 + 1 X50 + 1 X193 + 1 X179 + 1 X188
  + 1 X13 + 1 X93 + 1 X80 + 1 X182
  <= 1
 c32:
  + 1 X73 + 1 X9 + 1 X164 + 1 X32 + 1 X68 + 1 X124 + 1 X197 + 1 X56
  + 1 X156 + 1 X130 + 1 X27 + 1 X188 + 1 X108
  <= 1
 c33:
  + 1 X133 + 1 X119 + 1 X50 + 1 X105 + 1 X69 + 1 X39 + 1 X187 + 1 X77
  + 1 X15 + 1 X86
  <= 1
 c34:
  + 1 X178 + 1 X121 + 1 X194 + 1 X198 + 1 X163 + 1 X87 + 1 X80 + 1 X55
  + 1 X78 + 1 X7 + 1 X41
  <= 1
 c35:
  + 1 X198 + 1 X160 + 1 X75 + 1 X186 + 1 X191 + 1 X1 + 1 X83 + 1 X153
  + 1 X43 + 1 X141
  <= 1
 c36:
  + 1 X153 + 1 X79 + 1 X133 + 1 X77 + 1 X62 + 1 X66 + 1 X190 + 1 X131
  + 1 X65 + 1 X26 + 1 X36 + 1 X193 + 1 X69 + 1 X122
  <= 1
 c37:
  + 1 X82 + 1 X54
  <= 1
 c38:
  + 1 X36 + 1 X167 + 1 X2 + 1 X30 + 1 X79 + 1 X175 + 1 X70
  <= 1
 c39:
  + 1 X20 + 1 X116 + 1 X166 + 1 X160 + 1 X197 + 1 X119 + 1 X47 + 1 X72
  + 1 X170 + 1 X149 + 1 X82 + 1 X58 + 1 X1 + 1 X46
  <= 1
 c40:
  + 1 X39 + 1 X153 + 1 X135 + 1 X11 + 1 X131 + 1 X133 + 1 X141 + 1 X74
  + 1 X84 + 1 X116 + 1 X45 + 1 X196 + 1 X101 + 1 X40 + 1 X132 + 1 X166
  + 1 X30 + 1 X93 + 1 X89 + 1 X34
  <= 1
 obj1:
  + 89 X1 + 44 X2 + 28 X3 + 42 X4 + 98 X5 + 98 X6 + 80 X7 + 40 X8
  + 1 X9 + 55 X10 + 74 X11 + 43 X12 + 11 X13 + 63 X14 + 51 X15 + 71 X16
  + 30 X17 + 100 X18 + 74 X19 + 8 X20 + 18 X21 + 91 X22 + 13 X23 + 82 X24
  + 91 X25 + 76 X26 + 5 X27 + 33 X28 + 34 X29 + 29 X30 + 74 X31 + 54 X32
  + 70 X33 + 2 X34 + 49 X35 + 92 X36 + 43 X37 + 57 X38 + 19 X39 + 37 X40
  + 48 X41 + 25 X42 + 4 X43 + 27 X44 + 14 X45 + 97 X46 + 49 X47 + 65 X48
  + 9 X49 + 39 X50 + 94 X51 + 27 X52 + 88 X53 + 48 X54 + 90 X55 + 15 X56
  + 62 X57 + 6 X58 + 24 X59 + 43 X60 + 57 X61 + 47 X62 + 30 X63 + 39 X64
  + 63 X65 + 98 X66 + 6 X67 + 40 X68 + 52 X69 + 21 X70 + 1 X71 + 80 X72
  + 3 X73 + 98 X74 + 35 X75 + 75 X76 + 97 X77 + 11 X78 + 28 X79 + 18 X80
  + 91 X81 + 51 X82 + 97 X83 + 8 X84 + 93 X85 + 49 X86 + 90 X87 + 11 X88
  + 98 X89 + 72 X90 + 6 X91 + 43 X92 + 65 X93 + 14 X94 + 61 X95 + 77 X96
  + 52 X97 + 26 X98 + 3 X99 + 3 X100 + 42 X101 + 12 X102 + 99 X103 + 19 X104
  + 74 X105 + 68 X106 + 54 X107 + 86 X108 + 89 X109 + 88 X110 + 26 X111 + 5 X112
  + 88 X113 + 8 X114 + 57 X115 + 53 X116 + 8 X117 + 68 X118 + 79 X119 + 27 X120
  + 96 X121 + 58 X122 + 2 X123 + 58 X124 + 17 X125 + 57 X126 + 43 X127 + 59 X128
  + 55 X129 + 20 X130 + 34 X131 + 64 X132 + 66 X133 + 32 X134 + 25 X135 + 61 X136
  + 55 X137 + 25 X138 + 29 X139 + 54 X140 + 90 X141 + 4 X142 + 81 X143 + 85 X144
  + 57 X145 + 87 X146 + 37 X147 + 73 X148 + 76 X149 + 96 X150 + 46 X151 + 69 X152
  + 16 X153 + 70 X154 + 20 X155 + 57 X156 + 80 X157 + 12 X158 + 73 X159 + 8 X160
  + 39 X161 + 28 X162 + 78 X163 + 2 X164 + 20 X165 + 67 X166 + 96 X167 + 15 X168
  + 6 X169 + 54 X170 + 37 X171 + 89 X172 + 22 X173 + 54 X174 + 31 X175 + 45 X176
  + 8 X177 + 86 X178 + 98 X179 + 94 X180 + 67 X181 + 29 X182 + 32 X183 + 25 X184
  + 70 X185 + 1 X186 + 17 X187 + 53 X188 + 60 X189 + 37 X190 + 95 X191 + 34 X192
  + 64 X193 + 59 X194 + 49 X195 + 40 X196 + 2 X197 + 58 X198 + 82 X199 + 94 X200
  >= 1
 obj2:
  + 77 X1 + 69 X2 + 20 X3 + 7 X4 + 33 X5 + 28 X6 + 13 X7 + 7 X8
  + 94 X9 + 89 X10 + 73 X11 + 58 X12 + 75 X13 + 28 X14 + 29 X15 + 38 X16
  + 7 X17 + 81 X18 + 21 X19 + 98 X20 + 79 X21 + 31 X22 + 65 X23 + 3 X24
  + 8 X25 + 63 X26 + 53 X27 + 19 X28 + 34 X29 + 72 X30 + 36 X31 + 79 X32
  + 85 X33 + 48 X34 + 25 X35 + 42 X36 + 10 X37 + 10 X38 + 5 X39 + 7 X40
  + 5 X41 + 85 X42 + 45 X43 + 38 X44 + 28 X45 + 62 X46 + 11 X47 + 1 X48
  + 27 X49 + 43 X50 + 40 X51 + 40 X52 + 48 X53 + 71 X54 + 59 X55 + 15 X56
  + 88 X57 + 29 X58 + 20 X59 + 69 X60 + 13 X61 + 88 X62 + 61 X63 + 59 X64
  + 53 X65 + 38 X66 + 52 X67 + 19 X68 + 92 X69 + 65 X70 + 56 X71 + 62 X72
  + 91 X73 + 66 X74 + 19 X75 + 93 X76 + 43 X77 + 97 X78 + 20 X79 + 29 X80
  + 89 X81 + 39 X82 + 40 X83 + 11 X84 + 75 X85 + 77 X86 + 18 X87 + 85 X88
  + 76 X89 + 17 X90 + 49 X91 + 65 X92 + 6 X93 + 30 X94 + 96 X95 + 99 X96
  + 57 X97 + 4 X98 + 3 X99 + 53 X100 + 61 X101 + 94 X102 + 49 X103 + 27 X104
  + 86 X105 + 86 X106 + 64 X107 + 71 X108 + 19 X109 + 38 X110 + 96 X111 + 44 X112
  + 19 X113 + 96 X114 + 77 X115 + 88 X116 + 74 X117 + 13 X118 + 53 X119 + 73 X120
  + 84 X121 + 15 X122 + 52 X123 + 76 X124 + 21 X125 + 90 X126 + 4 X127 + 10 X128
  + 24 X129 + 37 X130 + 71 X131 + 38 X132 + 43 X133 + 78 X134 + 16 X135 + 3 X136
  + 38 X137 + 100 X138 + 5 X139 + 86 X140 + 16 X141 + 31 X142 + 23 X143 + 72 X144
  + 52 X145 + 78 X146 + 77 X147 + 80 X148 + 19 X149 + 72 X150 + 59 X151 + 49 X152
  + 74 X153 + 69 X154 + 42 X155 + 54 X156 + 69 X157 + 81 X158 + 12 X159 + 94 X160
  + 48 X161 + 54 X162 + 11 X163 + 82 X164 + 43 X165 + 99 X166 + 94 X167 + 23 X168
  + 2 X169 + 91 X170 + 38 X171 + 45 X172 + 54 X173 + 63 X174 + 2 X175 + 54 X176
  + 77 X177 + 71 X178 + 68 X179 + 8 X180 + 6 X181 + 41 X182 + 75 X183 + 98 X184
  + 2 X185 + 66 X186 + 9 X187 + 74 X188 + 65 X189 + 50 X190 + 27 X191 + 48 X192
  + 44 X193 + 89 X194 + 34 X195 + 52 X196 + 60 X197 + 79 X198 + 29 X199 + 11 X200
  >= 2
 obj3:
  + 58 X1 + 79 X2 + 59 X3 + 68 X4 + 19 X5 + 45 X6 + 27 X7 + 63 X8
  + 89 X9 + 20 X10 + 16 X11 + 67 X12 + 67 X13 + 52 X14 + 2 X15 + 72 X16
  + 49 X17 + 31 X18 + 3 X19 + 66 X20 + 47 X21 + 69 X22 + 98 X23 + 23 X24
  + 11 X25 + 58 X26 + 19 X27 + 12 X28 + 87 X29 + 21 X30 + 38 X31 + 78 X32
  + 56 X33 + 16 X34 + 52 X35 + 63 X36 + 83 X37 + 90 X38 + 19 X39 + 78 X40
  + 14 X41 + 81 X42 + 1 X43 + 69 X44 + 33 X45 + 80 X46 + 39 X47 + 87 X48
  + 66 X49 + 12 X50 + 96 X51 + 13 X52 + 53 X53 + 52 X54 + 55 X55 + 16 X56
  + 81 X57 + 34 X58 + 87 X59 + 93 X60 + 50 X61 + 63 X62 + 42 X63 + 64 X64
  + 59 X65 + 57 X66 + 15 X67 + 47 X68 + 81 X69 + 31 X70 + 100 X71 + 65 X72
  + 66 X73 + 63 X74 + 21 X75 + 58 X76 + 71 X77 + 45 X78 + 10 X79 + 10 X80
  + 49 X81 + 62 X82 + 94 X83 + 93 X84 + 40 X85 + 71 X86 + 26 X87 + 2 X88
  + 34 X89 + 2 X90 + 20 X91 + 9 X92 + 34 X93 + 56 X94 + 89 X95 + 86 X96
  + 20 X97 + 16 X98 + 17 X99 + 22 X100 + 60 X101 + 59 X102 + 89 X103 + 86 X104
  + 86 X105 + 64 X106 + 55 X107 + 29 X108 + 93 X109 + 24 X110 + 31 X111 + 31 X112
  + 28 X113 + 96 X114 + 3 X115 + 35 X116 + 13 X117 + 31 X118 + 45 X119 + 62 X120
  + 89 X121 + 58 X122 + 73 X123 + 85 X124 + 80 X125 + 82 X126 + 47 X127 + 10 X128
  + 10 X129 + 88 X130 + 28 X131 + 46 X132 + 100 X133 + 87 X134 + 52 X135 + 83 X136
  + 3 X137 + 73 X138 + 85 X139 + 23 X140 + 100 X141 + 30 X142 + 62 X143 + 13 X144
  + 5 X145 + 80 X146 + 84 X147 + 18 X148 + 15 X149 + 54 X150 + 68 X151 + 75 X152
  + 22 X153 + 81 X154 + 36 X155 + 83 X156 + 61 X157 + 13 X158 + 12 X159 + 75 X160
  + 3 X161 + 42 X162 + 25 X163 + 9 X164 + 54 X165 + 13 X166 + 23 X167 + 91 X168
  + 93 X169 + 11 X170 + 21 X171 + 79 X172 + 97 X173 + 67 X174 + 4 X175 + 2 X176
  + 44 X177 + 65 X178 + 97 X179 + 86 X180 + 58 X181 + 73 X182 + 61 X183 + 100 X184
  + 64 X185 + 57 X186 + 92 X187 + 94 X188 + 11 X189 + 45 X190 + 59 X191 + 80 X192
  + 6 X193 + 82 X194 + 80 X195 + 46 X196 + 5 X197 + 2 X198 + 62 X199 + 38 X200
  >= 3
 obj4:
  + 18 X1 + 45 X2 + 28 X3 + 75 X4 + 72 X5 + 92 X6 + 43 X7 + 41 X8
  + 47 X9 + 57 X10 + 97 X11 + 98 X12 + 62 X13 + 87 X14 + 41 X15 + 16 X16
  + 100 X17 + 24 X18 + 20 X19 + 63 X20 + 66 X21 + 51 X22 + 4 X23 + 14 X24
  + 94 X25 + 97 X26 + 7 X27 + 39 X28 + 89 X29 + 2 X30 + 84 X31 + 61 X32
  + 95 X33 + 38 X34 + 74 X35 + 46 X36 + 65 X37 + 100 X38 + 90 X39 + 37 X40
  + 16 X41 + 83 X42 + 19 X43 + 50 X44 + 59 X45 + 43 X46 + 83 X47 + 27 X48
  + 81 X49 + 19 X50 + 5 X51 + 31 X52 + 89 X53 + 14 X54 + 28 X55 + 60 X56
  + 10 X57 + 79 X58 + 26 X59 + 44 X60 + 21 X61 + 62 X62 + 74 X63 + 41 X64
  + 8 X65 + 9 X66 + 61 X67 + 51 X68 + 28 X69 + 27 X70 + 53 X71 + 72 X72
  + 6 X73 + 89 X74 + 16 X75 + 27 X76 + 76 X77 + 2 X78 + 87 X79 + 80 X80
  + 46 X81 + 44 X82 + 85 X83 + 5 X84 + 52 X85 + 65 X86 + 1 X87 + 27 X88
  + 40 X89 + 42 X90 + 16 X91 + 47 X92 + 90 X93 + 85 X94 + 4 X95 + 34 X96
  + 60 X97 + 9 X98 + 5 X99 + 27 X100 + 39 X101 + 56 X102 + 73 X103 + 93 X104
  + 47 X105 + 60 X106 + 35 X107 + 98 X108 + 37 X109 + 97 X110 + 17 X111 + 61 X112
  + 87 X113 + 90 X114 + 86 X115 + 53 X116 + 95 X117 + 19 X118 + 91 X119 + 59 X120
  + 10 X121 + 90 X122 + 90 X123 + 69 X124 + 90 X125 + 39 X126 + 29 X127 + 18 X128
  + 60 X129 + 100 X130 + 72 X131 + 29 X132 + 75 X133 + 51 X134 + 93 X135 + 95 X136
  + 62 X137 + 84 X138 + 95 X139 + 1 X140 + 62 X141 + 72 X142 + 16 X143 + 35 X144
  + 33 X145 + 22 X146 + 34 X147 + 18 X148 + 9 X149 + 9 X150 + 68 X151 + 39 X152
  + 51 X153 + 90 X154 + 6 X155 + 15 X156 + 94 X157 + 24 X158 + 20 X159 + 8 X160
  + 10 X161 + 26 X162 + 88 X163 + 72 X164 + 3 X165 + 24 X166 + 64 X167 + 21 X168
  + 21 X169 + 12 X170 + 55 X171 + 60 X172 + 2 X173 + 91 X174 + 8 X175 + 32 X176
  + 92 X177 + 36 X178 + 92 X179 + 7 X180 + 82 X181 + 70 X182 + 18 X183 + 91 X184
  + 64 X185 + 59 X186 + 46 X187 + 96 X188 + 98 X189 + 25 X190 + 96 X191 + 45 X192
  + 62 X193 + 95 X194 + 7 X195 + 78 X196 + 55 X197 + 3 X198 + 45 X199 + 47 X200
  >= 4
Binary
 X1
 X2
 X3
 X4
 X5
 X6
 X7
 X8
 X9
 X10
 X11
 X12
 X13
 X14
 X15
 X16
 X17
 X18
 X19
 X20
 X21
 X22
 X23
 X24
 X25
 X26
 X27
 X28
 X29
 X30
 X31
 X32
 X33
 X34
 X35
 X36
 X37
 X38
 X39
 X40
 X41
 X42
 X43
 X44
 X45
 X46
 X47
 X48
 X49
 X50
 X51
 X52
 X53
 X54
 X55
 X56
 X57
 X58
 X59
 X60
 X61
 X62
 X63
 X64
 X65
 X66
 X67
 X68
 X69
 X70
 X71
 X72
 X73
 X74
 X75
 X76
 X77
 X78
 X79
 X80
 X81
 X82
 X83
 X84
 X85
 X86
 X87
 X88
 X89
 X90
 X91
 X92
 X93
 X94
 X95
 X96
 X97
 X98
 X99
 X100
 X101
 X102
 X103
 X104
 X105
 X106
 X107
 X108
 X109
 X110
 X111
 X112
 X113
 X114
 X115
 X116
 X117
 X118
 X119
 X120
 X121
 X122
 X123
 X124
 X125
 X126
 X127
 X128
 X129
 X130
 X131
 X132
 X133
 X134
 X135
 X136
 X137
 X138
 X139
 X140
 X141
 X142
 X143
 X144
 X145
 X146
 X147
 X148
 X149
 X150
 X151
 X152
 X153
 X154
 X155
 X156
 X157
 X158
 X159
 X160
 X161
 X162
 X163
 X164
 X165
 X166
 X167
 X168
 X169
 X170
 X171
 X172
 X173
 X174
 X175
 X176
 X177
 X178
 X179
 X180
 X181
 X182
 X183
 X184
 X185
 X186
 X187
 X188
 X189
 X190
 X191
 X192
 X193
 X194
 X195
 X196
 X197
 X198
 X199
 X200
End
